unsat
(define-fun inv ((y Int) (z Int) (c Int)) Bool (and (or (and (>= z 0) (not (>= z 4608))) (>= c 36)) (not (>= (+ z (* (- 1) c)) 4573))))
2.62user 0.04system 0:02.67elapsed 99%CPU (0avgtext+0avgdata 54124maxresident)k
0inputs+8outputs (0major+10234minor)pagefaults 0swaps
